WARNING: for repeatability, setting FPU to use double precision
============================[ Problem Statistics ]=============================
|                                                                             |
|  Number of variables:            50                                         |
|  Number of clauses:             218                                         |
|  Parse time:                   0.00 s                                       |
|                                                                             |
============================[ Search Statistics ]==============================
| Conflicts |          ORIGINAL         |          LEARNT          | Progress |
|           |    Vars  Clauses Literals |    Limit  Clauses Lit/Cl |          |
===============================================================================
===============================================================================
restarts              : 1
conflicts             : 81             (53325 /sec)
decisions             : 88             (0.00 % random) (57933 /sec)
propagations          : 1084           (713627 /sec)
conflict literals     : 332            (17.00 % deleted)
Memory used           : 20.00 MB
CPU time              : 0.001519 s

UNSATISFIABLE
